JOBS = 1..6;
MACHINES = 1..3;
SPEED = 3;
time = array3d(JOBS,MACHINES,1..SPEED,[48,11,8,173,42,31,83,20,14,199,48,35,255,62,45,99,24,17,125,30,22,102,25,18,192,47,34,164,40,29,167,41,30,157,38,28,35,8,6,96,23,17,121,29,21,97,23,17,214,52,38,257,63,46]);
energy = array3d(JOBS,MACHINES,1..SPEED,[61,89,92,17,65,73,43,81,86,13,61,70,7,53,63,37,78,84,28,74,80,36,77,83,14,62,71,19,67,74,18,66,74,20,68,75,70,92,94,38,79,84,29,74,81,37,79,84,11,59,68,7,53,63]);
precedence = array2d(JOBS,MACHINES,[2,0,1,0,1,2,1,0,2,2,1,0,2,1,0,1,2,0]);
ME = 1;
TE = 214;
st_old = array2d(JOBS,MACHINES,[324,102,278,0,458,569,199,0,377,469,275,0,633,520,157,372,616,298]);
SpeedScaling = array2d(JOBS,MACHINES,[1,1,2,1,2,1,1,1,1,1,1,1,1,1,1,1,2,2]);
